unsat
((set-logic NIA)
(declare-fun s!0 () Int)
(declare-fun q!3 () Int)
(declare-fun b!2 () Int)
(declare-fun r!1 () Int)
(declare-fun p!5 () Int)
(declare-fun a!4 () Int)
(proof
(let ((?x1854 (* (- 1) (* q00 a00 s!0))))
 (let ((?x553 (* (- 1) (* r00 b00 q!3))))
 (let ((?x1214 (* p00 b00 s!0)))
 (let ((?x1215 (* (- 1) (* p00 s00 b!2))))
 (let ((?x872 (* q00 r00 b!2)))
 (let ((?x784 (* s00 a00 q!3)))
 (let ((?x1539 (+ ?x784 ?x872 ?x1215 ?x1214 ?x553 ?x1854)))
 (let (($x380 (<= ?x1539 0)))
 (let (($x1545 (= ?x1539 0)))
 (let ((?x1583 (* b!2 q!3 q!3 q!3 p!5 a!4 r!1 r!1 s!0)))
 (let ((?x1735 (* (- 1) b!2)))
 (let ((?x1359 (+ ?x1735 a!4)))
 (let ((?x1734 (+ r!1 (* (- 1) s!0))))
 (let ((?x1571 (* ?x1734 ?x1734 ?x1734 ?x1359 ?x1359 ?x1359 (+ (* (- 1) q!3) p!5) s!0 b!2)))
 (let ((?x1535 (* (- 1) (* b!2 q!3 p!5 p!5 r!1 r!1 s!0))))
 (let ((?x1482 (* (- 1) (* b!2 b!2 b!2 q!3 p!5 p!5 a!4 a!4 s!0))))
 (let ((?x1654 (+ (* (- 1) (* b!2 q!3 q!3 q!3 s!0 s!0 s!0)) (* (- 1) (* b!2 b!2 b!2 b!2 b!2 q!3 p!5 p!5 s!0)) (* 2 (* b!2 q!3 q!3 p!5 r!1 r!1 s!0)) (* (- 1) (* b!2 q!3 q!3 q!3 q!3 a!4 r!1 r!1 s!0)) (* 2 (* b!2 q!3 p!5 p!5 r!1 s!0 s!0)) (* (- 2) (* b!2 b!2 q!3 q!3 q!3 q!3 r!1 s!0 s!0)) (* 2 (* b!2 b!2 q!3 q!3 q!3 p!5 r!1 s!0 s!0)) (* 2 (* b!2 q!3 q!3 q!3 q!3 a!4 r!1 s!0 s!0)) (* (- 2) (* b!2 q!3 q!3 q!3 p!5 a!4 r!1 s!0 s!0)) (* 2 (* b!2 b!2 b!2 b!2 q!3 p!5 p!5 a!4 s!0)) (* (- 4) (* b!2 b!2 b!2 b!2 q!3 q!3 p!5 a!4 s!0)) (* (- 1) (* b!2 b!2 b!2 q!3 q!3 q!3 a!4 a!4 s!0)) (* 2 (* b!2 b!2 b!2 b!2 q!3 q!3 q!3 a!4 s!0)) (* (- 1) (* b!2 b!2 q!3 q!3 q!3 p!5 s!0 s!0 s!0)) (* (- 1) (* b!2 q!3 q!3 q!3 q!3 a!4 s!0 s!0 s!0)) (* b!2 b!2 q!3 q!3 q!3 q!3 s!0 s!0 s!0) ?x1482 (* 2 (* b!2 b!2 b!2 q!3 q!3 p!5 a!4 a!4 s!0)) (* 2 (* b!2 b!2 b!2 b!2 b!2 q!3 q!3 p!5 s!0)) (* (- 1) (* b!2 b!2 b!2 b!2 b!2 q!3 q!3 q!3 s!0)) ?x1535 (* (- 1) (* b!2 q!3 q!3 q!3 r!1 r!1 s!0)) (* (- 4) (* b!2 q!3 q!3 p!5 r!1 s!0 s!0)) (* 2 (* b!2 q!3 q!3 q!3 r!1 s!0 s!0)) (* (- 1) (* b!2 q!3 p!5 p!5 s!0 s!0 s!0)) (* (- 1) ?x1571) ?x1583 (* b!2 q!3 q!3 q!3 p!5 a!4 s!0 s!0 s!0) (* 2 (* b!2 q!3 q!3 p!5 s!0 s!0 s!0)) (* (- 1) (* b!2 b!2 q!3 q!3 q!3 p!5 r!1 r!1 s!0)) (* b!2 b!2 q!3 q!3 q!3 q!3 r!1 r!1 s!0))))
 (let (($x1387 (= (* ?x1654 ?x1539) 0)))
 (let (($x1651 (not $x1387)))
 (let ((?x1916 (* p00 s00 a!4)))
 (let ((?x693 (* (- 1) (* p00 b00 r!1))))
 (let ((?x1787 (* (- 1) (* s00 a00 p!5))))
 (let ((?x486 (* (- 1) (* q00 r00 a!4))))
 (let ((?x672 (* q00 a00 r!1)))
 (let ((?x490 (* r00 b00 p!5)))
 (let ((?x1901 (* (- 1) (* p!5 p!5 p!5 a!4 a!4 a!4 a!4 a!4 s!0))))
 (let ((?x1836 (* p!5 p!5 p!5 a!4 a!4 a!4 a!4 a!4 r!1)))
 (let ((?x342 (* (- 1) (* p!5 a!4 a!4 a!4 a!4 r!1 r!1 r!1 r!1))))
 (let ((?x984 (* (- 1) (* p!5 p!5 p!5 a!4 r!1 r!1 s!0))))
 (let ((?x980 (* p!5 p!5 p!5 a!4 r!1 r!1 r!1)))
 (let ((?x710 (* (- 1) (* p!5 p!5 p!5 p!5 a!4 a!4 r!1 r!1 r!1))))
 (let ((?x415 (* p!5 p!5 p!5 p!5 a!4 a!4 r!1 r!1 s!0)))
 (let ((?x364 (* p!5 a!4 a!4 a!4 a!4 r!1 r!1 r!1 s!0)))
 (let ((?x1553 (+ ?x364 ?x415 ?x710 (* (- 3) (* b!2 q!3 p!5 p!5 p!5 a!4 r!1 r!1 r!1)) (* 3 (* b!2 q!3 q!3 p!5 p!5 a!4 r!1 r!1 r!1)) (* 3 (* q!3 p!5 p!5 p!5 a!4 a!4 r!1 r!1 r!1)) (* (- 3) (* b!2 p!5 p!5 p!5 a!4 a!4 a!4 a!4 r!1)) ?x980 ?x984 ?x342 (* (- 3) (* q!3 q!3 p!5 p!5 a!4 a!4 r!1 r!1 r!1)) (* (- 1) (* q!3 q!3 q!3 p!5 a!4 a!4 r!1 r!1 s!0)) (* 3 (* b!2 b!2 p!5 p!5 p!5 a!4 a!4 a!4 r!1)) (* b!2 p!5 a!4 a!4 a!4 r!1 r!1 r!1 r!1) (* b!2 p!5 p!5 p!5 r!1 r!1 s!0) (* q!3 p!5 p!5 a!4 a!4 a!4 a!4 a!4 s!0) (* (- 3) (* b!2 b!2 q!3 p!5 p!5 a!4 a!4 a!4 r!1)) (* b!2 b!2 b!2 p!5 p!5 p!5 a!4 a!4 s!0) (* q!3 q!3 q!3 p!5 a!4 a!4 r!1 r!1 r!1) ?x1482 (* (- 1) (* b!2 q!3 q!3 q!3 p!5 a!4 r!1 r!1 r!1)) (* (- 3) (* q!3 p!5 p!5 p!5 a!4 a!4 r!1 r!1 s!0)) (* (- 1) (* b!2 p!5 p!5 p!5 p!5 a!4 r!1 r!1 s!0)) (* 3 (* b!2 q!3 p!5 p!5 p!5 a!4 r!1 r!1 s!0)) ?x1535 (* 3 (* q!3 q!3 p!5 p!5 a!4 a!4 r!1 r!1 s!0)) (* (- 3) (* b!2 q!3 q!3 p!5 p!5 a!4 r!1 r!1 s!0)) (* b!2 q!3 p!5 p!5 r!1 r!1 r!1) (* 3 (* b!2 p!5 p!5 p!5 a!4 a!4 a!4 a!4 s!0)) (* 3 (* b!2 q!3 p!5 p!5 a!4 a!4 a!4 a!4 r!1)) (* (- 1) (* b!2 b!2 b!2 p!5 p!5 p!5 a!4 a!4 r!1)) ?x1583 (* (- 1) (* b!2 p!5 a!4 a!4 a!4 r!1 r!1 r!1 s!0)) (* q!3 p!5 p!5 a!4 r!1 r!1 s!0) (* (- 1) (* q!3 p!5 p!5 a!4 r!1 r!1 r!1)) (* 3 (* b!2 b!2 q!3 p!5 p!5 a!4 a!4 a!4 s!0)) (* (- 3) (* b!2 q!3 p!5 p!5 a!4 a!4 a!4 a!4 s!0)) (* (- 1) (* b!2 p!5 p!5 p!5 r!1 r!1 r!1)) (* b!2 b!2 b!2 q!3 p!5 p!5 a!4 a!4 r!1) (* (- 3) (* b!2 b!2 p!5 p!5 p!5 a!4 a!4 a!4 s!0)) (* (- 1) (* q!3 p!5 p!5 a!4 a!4 a!4 a!4 a!4 r!1)) (* b!2 p!5 p!5 p!5 p!5 a!4 r!1 r!1 r!1) ?x1836 ?x1901)))
 (let ((?x1576 (* ?x1553 (+ ?x490 ?x672 ?x784 ?x872 ?x486 ?x1215 ?x1214 ?x1787 ?x693 ?x553 ?x1854 ?x1916))))
 (let (($x1585 (= ?x1576 0)))
 (let (($x1575 (not $x1585)))
 (let (($x1581 (or $x1575 $x1651)))
 (let ((?x1184 (+ ?x490 ?x672 ?x486 ?x1787 ?x693 ?x1916)))
 (let (($x1671 (= ?x1184 0)))
 (let ((?x143 (* q00 a00)))
 (let ((?x428 (+ ?x143 (* (- 1) (* p00 b00)) (* (- 1) (* q!3 a!4)) (* b!2 p!5))))
 (let ((?x1828 (* b!2 r!1)))
 (let ((?x139 (* s00 a00)))
 (let (($x397 (= (+ ?x139 (* (- 1) (* r00 b00)) (* (- 1) (* a!4 s!0)) ?x1828) 0)))
 (let ((?x1846 (* q!3 r!1)))
 (let ((?x41 (* q00 r00)))
 (let ((?x786 (* (- 1) ?x41)))
 (let ((?x37 (* p00 s00)))
 (let (($x1811 (and (= (+ ?x37 ?x786 (* (- 1) (* p!5 s!0)) ?x1846) 0) $x397 (= ?x428 0) $x1671 $x1545 $x1581)))
 (let ((?x539 (* (- 1) (* s!0 q00 a00))))
 (let ((?x1827 (* q!3 s00 a00)))
 (let ((?x535 (* (- 1) (* q!3 r00 b00))))
 (let ((?x538 (* s!0 p00 b00)))
 (let ((?x611 (* r!1 q00 a00)))
 (let ((?x1823 (* (- 1) (* p!5 s00 a00))))
 (let ((?x1868 (* (- 1) (* r!1 p00 b00))))
 (let ((?x1866 (* p!5 r00 b00)))
 (let ((?x511 (* (- 1) (* b!2 p00 s00))))
 (let ((?x510 (* b!2 q00 r00)))
 (let ((?x1865 (* (- 1) (* a!4 q00 r00))))
 (let ((?x1862 (* a!4 p00 s00)))
 (let ((?x1222 (* (- 1) (* p!5 p!5 q!3 b!2 r!1 r!1 s!0))))
 (let ((?x570 (* (- 1) (* p!5 p!5 a!4 a!4 q!3 b!2 b!2 b!2 s!0))))
 (let ((?x545 (* p!5 a!4 q!3 q!3 q!3 b!2 r!1 r!1 s!0)))
 (let ((?x368 (+ ?x545 ?x570 ?x1222 ?x710 (* p!5 p!5 p!5 p!5 a!4 b!2 r!1 r!1 r!1) (* 3 (* p!5 p!5 p!5 a!4 a!4 q!3 r!1 r!1 r!1)) (* (- 3) (* p!5 p!5 p!5 a!4 q!3 b!2 r!1 r!1 r!1)) (* (- 3) (* p!5 p!5 a!4 a!4 q!3 q!3 r!1 r!1 r!1)) (* 3 (* p!5 p!5 a!4 q!3 q!3 b!2 r!1 r!1 r!1)) (* p!5 a!4 a!4 q!3 q!3 q!3 r!1 r!1 r!1) (* (- 1) (* p!5 a!4 q!3 q!3 q!3 b!2 r!1 r!1 r!1)) ?x415 (* (- 1) (* p!5 p!5 p!5 p!5 a!4 b!2 r!1 r!1 s!0)) (* (- 3) (* p!5 p!5 p!5 a!4 a!4 q!3 r!1 r!1 s!0)) (* 3 (* p!5 p!5 p!5 a!4 q!3 b!2 r!1 r!1 s!0)) (* 3 (* p!5 p!5 a!4 a!4 q!3 q!3 r!1 r!1 s!0)) (* (- 3) (* p!5 p!5 a!4 q!3 q!3 b!2 r!1 r!1 s!0)) (* (- 1) (* p!5 a!4 a!4 q!3 q!3 q!3 r!1 r!1 s!0)) ?x1836 (* (- 3) (* p!5 p!5 p!5 a!4 a!4 a!4 a!4 b!2 r!1)) (* 3 (* p!5 p!5 p!5 a!4 a!4 a!4 b!2 b!2 r!1)) (* (- 1) (* p!5 p!5 p!5 a!4 a!4 b!2 b!2 b!2 r!1)) (* (- 1) (* p!5 p!5 a!4 a!4 a!4 a!4 a!4 q!3 r!1)) (* 3 (* p!5 p!5 a!4 a!4 a!4 a!4 q!3 b!2 r!1)) (* (- 3) (* p!5 p!5 a!4 a!4 a!4 q!3 b!2 b!2 r!1)) (* p!5 p!5 a!4 a!4 q!3 b!2 b!2 b!2 r!1) ?x1901 (* 3 (* p!5 p!5 p!5 a!4 a!4 a!4 a!4 b!2 s!0)) (* (- 3) (* p!5 p!5 p!5 a!4 a!4 a!4 b!2 b!2 s!0)) (* p!5 p!5 p!5 a!4 a!4 b!2 b!2 b!2 s!0) (* p!5 p!5 a!4 a!4 a!4 a!4 a!4 q!3 s!0) (* (- 3) (* p!5 p!5 a!4 a!4 a!4 a!4 q!3 b!2 s!0)) (* 3 (* p!5 p!5 a!4 a!4 a!4 q!3 b!2 b!2 s!0)) ?x980 (* (- 1) (* p!5 p!5 p!5 b!2 r!1 r!1 r!1)) (* (- 1) (* p!5 p!5 a!4 q!3 r!1 r!1 r!1)) (* p!5 p!5 q!3 b!2 r!1 r!1 r!1) ?x984 (* p!5 p!5 p!5 b!2 r!1 r!1 s!0) (* p!5 p!5 a!4 q!3 r!1 r!1 s!0) ?x342 (* p!5 a!4 a!4 a!4 b!2 r!1 r!1 r!1 r!1) ?x364 (* (- 1) (* p!5 a!4 a!4 a!4 b!2 r!1 r!1 r!1 s!0)))))
 (let ((?x344 (* ?x368 (+ ?x1862 ?x1865 ?x510 ?x511 ?x1866 ?x1868 ?x1823 ?x611 ?x538 ?x535 ?x1827 ?x539))))
 (let ((?x540 (+ ?x510 ?x511 ?x538 ?x535 ?x1827 ?x539)))
 (let ((?x531 (+ a!4 ?x1735)))
 (let ((?x504 (* ?x1734 ?x1734 ?x1734 ?x531 ?x531 ?x531 (+ p!5 (* (- 1) q!3)) s!0 b!2)))
 (let ((?x505 (+ ?x545 (* (- 1) (* p!5 q!3 q!3 q!3 b!2 b!2 r!1 r!1 s!0)) (* (- 1) (* a!4 q!3 q!3 q!3 q!3 b!2 r!1 r!1 s!0)) (* q!3 q!3 q!3 q!3 b!2 b!2 r!1 r!1 s!0) (* (- 2) (* p!5 a!4 q!3 q!3 q!3 b!2 r!1 s!0 s!0)) (* 2 (* p!5 q!3 q!3 q!3 b!2 b!2 r!1 s!0 s!0)) (* 2 (* a!4 q!3 q!3 q!3 q!3 b!2 r!1 s!0 s!0)) (* (- 2) (* q!3 q!3 q!3 q!3 b!2 b!2 r!1 s!0 s!0)) (* p!5 a!4 q!3 q!3 q!3 b!2 s!0 s!0 s!0) (* (- 1) (* p!5 q!3 q!3 q!3 b!2 b!2 s!0 s!0 s!0)) (* (- 1) (* a!4 q!3 q!3 q!3 q!3 b!2 s!0 s!0 s!0)) (* q!3 q!3 q!3 q!3 b!2 b!2 s!0 s!0 s!0) ?x570 (* 2 (* p!5 p!5 a!4 q!3 b!2 b!2 b!2 b!2 s!0)) (* (- 1) (* p!5 p!5 q!3 b!2 b!2 b!2 b!2 b!2 s!0)) (* 2 (* p!5 a!4 a!4 q!3 q!3 b!2 b!2 b!2 s!0)) (* (- 4) (* p!5 a!4 q!3 q!3 b!2 b!2 b!2 b!2 s!0)) (* 2 (* p!5 q!3 q!3 b!2 b!2 b!2 b!2 b!2 s!0)) (* (- 1) (* a!4 a!4 q!3 q!3 q!3 b!2 b!2 b!2 s!0)) (* 2 (* a!4 q!3 q!3 q!3 b!2 b!2 b!2 b!2 s!0)) (* (- 1) (* q!3 q!3 q!3 b!2 b!2 b!2 b!2 b!2 s!0)) ?x1222 (* 2 (* p!5 q!3 q!3 b!2 r!1 r!1 s!0)) (* (- 1) (* q!3 q!3 q!3 b!2 r!1 r!1 s!0)) (* 2 (* p!5 p!5 q!3 b!2 r!1 s!0 s!0)) (* (- 4) (* p!5 q!3 q!3 b!2 r!1 s!0 s!0)) (* 2 (* q!3 q!3 q!3 b!2 r!1 s!0 s!0)) (* (- 1) (* p!5 p!5 q!3 b!2 s!0 s!0 s!0)) (* 2 (* p!5 q!3 q!3 b!2 s!0 s!0 s!0)) (* (- 1) (* q!3 q!3 q!3 b!2 s!0 s!0 s!0)) (* (- 1) ?x504))))
 (let ((?x144 (* p00 b00)))
 (let ((?x187 (* (- 1) ?x143)))
 (let (($x1769 (= (+ (* a!4 s!0) (* (- 1) ?x1828) (* (- 1) ?x139) (* r00 b00)) 0)))
 (let (($x372 (and (= (+ (* p!5 s!0) (* (- 1) ?x37) ?x41 (* (- 1) ?x1846)) 0) $x1769 (= (+ (* a!4 q!3) ?x187 ?x144 (* (- 1) (* p!5 b!2))) 0) (= (+ ?x1862 ?x1865 ?x1866 ?x1868 ?x1823 ?x611) 0) (= ?x540 0) (or (not (= (* ?x505 ?x540) 0)) (not (= ?x344 0))))))
 (let (($x825 (exists ((p Int) (a Int) (q Int) (b Int) (r Int) (s Int) )(! (let ((?x313 (* (- 1) (* s q00 a00))))
 (let ((?x296 (* q s00 a00)))
 (let ((?x271 (* (- 1) (* q r00 b00))))
 (let ((?x261 (* s p00 b00)))
 (let ((?x232 (* r q00 a00)))
 (let ((?x254 (* (- 1) (* p s00 a00))))
 (let ((?x253 (* (- 1) (* r p00 b00))))
 (let ((?x198 (* p r00 b00)))
 (let ((?x76 (* b p00 s00)))
 (let ((?x285 (* (- 1) ?x76)))
 (let ((?x72 (* b q00 r00)))
 (let ((?x66 (* a q00 r00)))
 (let ((?x252 (* (- 1) ?x66)))
 (let ((?x63 (* a p00 s00)))
 (let ((?x1103 (+ ?x63 ?x252 ?x72 ?x285 ?x198 ?x253 ?x254 ?x232 ?x261 ?x271 ?x296 ?x313)))
 (let ((?x886 (* (- 1) (* p p q b r r s))))
 (let ((?x677 (* (- 1) (* p p a a q b b b s))))
 (let ((?x363 (* p a q q q b r r s)))
 (let ((?x1963 (+ ?x363 ?x677 ?x886 (* (- 1) (* p p p p a a r r r)) (* p p p p a b r r r) (* 3 (* p p p a a q r r r)) (* (- 3) (* p p p a q b r r r)) (* (- 3) (* p p a a q q r r r)) (* 3 (* p p a q q b r r r)) (* p a a q q q r r r) (* (- 1) (* p a q q q b r r r)) (* p p p p a a r r s) (* (- 1) (* p p p p a b r r s)) (* (- 3) (* p p p a a q r r s)) (* 3 (* p p p a q b r r s)) (* 3 (* p p a a q q r r s)) (* (- 3) (* p p a q q b r r s)) (* (- 1) (* p a a q q q r r s)) (* p p p a a a a a r) (* (- 3) (* p p p a a a a b r)) (* 3 (* p p p a a a b b r)) (* (- 1) (* p p p a a b b b r)) (* (- 1) (* p p a a a a a q r)) (* 3 (* p p a a a a q b r)) (* (- 3) (* p p a a a q b b r)) (* p p a a q b b b r) (* (- 1) (* p p p a a a a a s)) (* 3 (* p p p a a a a b s)) (* (- 3) (* p p p a a a b b s)) (* p p p a a b b b s) (* p p a a a a a q s) (* (- 3) (* p p a a a a q b s)) (* 3 (* p p a a a q b b s)) (* p p p a r r r) (* (- 1) (* p p p b r r r)) (* (- 1) (* p p a q r r r)) (* p p q b r r r) (* (- 1) (* p p p a r r s)) (* p p p b r r s) (* p p a q r r s) (* (- 1) (* p a a a a r r r r)) (* p a a a b r r r r) (* p a a a a r r r s) (* (- 1) (* p a a a b r r r s)))))
 (let ((?x319 (+ ?x72 ?x285 ?x261 ?x271 ?x296 ?x313)))
 (let ((?x332 (+ p (* (- 1) q))))
 (let ((?x328 (+ a (* (- 1) b))))
 (let ((?x336 (+ r (* (- 1) s))))
 (let ((?x1189 (* (- 1) (* ?x336 ?x336 ?x336 ?x328 ?x328 ?x328 ?x332 s b))))
 (let ((?x894 (* (- 1) (* q q q b s s s))))
 (let ((?x910 (* 2 (* p q q b s s s))))
 (let ((?x892 (* (- 1) (* p p q b s s s))))
 (let ((?x907 (* 2 (* q q q b r s s))))
 (let ((?x904 (* (- 4) (* p q q b r s s))))
 (let ((?x901 (* 2 (* p p q b r s s))))
 (let ((?x888 (* (- 1) (* q q q b r r s))))
 (let ((?x898 (* 2 (* p q q b r r s))))
 (let ((?x685 (* (- 1) (* q q q b b b b b s))))
 (let ((?x702 (* 2 (* a q q q b b b b s))))
 (let ((?x683 (* (- 1) (* a a q q q b b b s))))
 (let ((?x699 (* 2 (* p q q b b b b b s))))
 (let ((?x696 (* (- 4) (* p a q q b b b b s))))
 (let ((?x692 (* 2 (* p a a q q b b b s))))
 (let ((?x679 (* (- 1) (* p p q b b b b b s))))
 (let ((?x689 (* 2 (* p p a q b b b b s))))
 (let ((?x485 (* q q q q b b s s s)))
 (let ((?x479 (* (- 1) (* a q q q q b s s s))))
 (let ((?x469 (* (- 1) (* p q q q b b s s s))))
 (let ((?x457 (* p a q q q b s s s)))
 (let ((?x498 (* (- 2) (* q q q q b b r s s))))
 (let ((?x497 (* 2 (* a q q q q b r s s))))
 (let ((?x496 (* 2 (* p q q q b b r s s))))
 (let ((?x494 (* (- 2) (* p a q q q b r s s))))
 (let ((?x383 (* q q q q b b r r s)))
 (let ((?x377 (* (- 1) (* a q q q q b r r s))))
 (let ((?x367 (* (- 1) (* p q q q b b r r s))))
 (let ((?x1183 (+ ?x363 ?x367 ?x377 ?x383 ?x494 ?x496 ?x497 ?x498 ?x457 ?x469 ?x479 ?x485 ?x677 ?x689 ?x679 ?x692 ?x696 ?x699 ?x683 ?x702 ?x685 ?x886 ?x898 ?x888 ?x901 ?x904 ?x907 ?x892 ?x910 ?x894 ?x1189)))
 (let (($x324 (= ?x319 0)))
 (let (($x256 (= (+ ?x63 ?x252 ?x198 ?x253 ?x254 ?x232) 0)))
 (let ((?x144 (* p00 b00)))
 (let ((?x143 (* q00 a00)))
 (let ((?x187 (* (- 1) ?x143)))
 (let (($x190 (= (+ (* a q) ?x187 ?x144 (* (- 1) (* p b))) 0)))
 (let ((?x157 (* r00 b00)))
 (let ((?x139 (* s00 a00)))
 (let ((?x146 (* (- 1) ?x139)))
 (let ((?x49 (* a s)))
 (let (($x172 (= (+ ?x49 (* (- 1) (* b r)) ?x146 ?x157) 0)))
 (let ((?x41 (* q00 r00)))
 (let ((?x37 (* p00 s00)))
 (let ((?x148 (* (- 1) ?x37)))
 (let ((?x33 (* p s)))
 (let (($x167 (= (+ ?x33 ?x148 ?x41 (* (- 1) (* q r))) 0)))
 (and $x167 $x172 $x190 $x256 $x324 (or (not (= (* ?x1183 ?x319) 0)) (not (= (* ?x1963 ?x1103) 0)))))))))))))))))))))))))))))))))))))))))))))))))))))))))))))))))))))))) :qid k!39))
 ))
 (let (($x808 (exists ((p Int) (a Int) (q Int) (b Int) (r Int) (s Int) )(! (let ((?x1388 (+ (* q00 r00 (+ b (* (- 1) a))) (* b00 p00 (+ s (* (- 1) r))) (* (- 1) (* b00 r00 (+ q (* (- 1) p)))) (* (- 1) (* p00 s00 (+ b (* (- 1) a)))) (* a00 s00 (+ q (* (- 1) p))) (* (- 1) (* a00 q00 (+ s (* (- 1) r)))))))
 (let ((?x1057 (+ b (* (- 1) a))))
 (let ((?x837 (+ s (* (- 1) r))))
 (let ((?x1480 (* (- 1) (* ?x837 ?x1057 (+ q (* (- 1) p)) r r p p))))
 (let ((?x727 (+ q (* (- 1) p))))
 (let ((?x1508 (+ (* ?x837 ?x1057 ?x727 ?x727 ?x727 r r a p) (* (- 1) (* ?x837 ?x1057 ?x1057 ?x1057 ?x727 a a p p)) ?x1480 (* (- 1) (* ?x837 ?x1057 r r r a a a p)))))
 (let ((?x73 (* b00 p00 s)))
 (let ((?x810 (+ (* q00 r00 b) ?x73 (* (- 1) (* b00 r00 q)) (* (- 1) (* p00 s00 b)) (* a00 s00 q) (* (- 1) (* a00 q00 s)))))
 (let ((?x332 (+ p (* (- 1) q))))
 (let ((?x328 (+ a (* (- 1) b))))
 (let ((?x336 (+ r (* (- 1) s))))
 (let ((?x1189 (* (- 1) (* ?x336 ?x336 ?x336 ?x328 ?x328 ?x328 ?x332 s b))))
 (let ((?x1677 (+ (* ?x336 ?x336 ?x328 ?x332 s b q q q) (* (- 1) (* ?x328 ?x328 ?x332 ?x332 s b b b q)) (* (- 1) (* ?x336 ?x336 ?x332 ?x332 s b q)) ?x1189)))
 (let (($x1519 (or (not (= (* ?x1677 ?x810) 0)) (not (= (* ?x1508 ?x1388) 0)))))
 (let (($x814 (= ?x810 0)))
 (let ((?x69 (* a00 q00 r)))
 (let ((?x736 (* p00 s00 a)))
 (let ((?x199 (* b00 r00 p)))
 (let ((?x772 (+ ?x199 ?x736 (* (- 1) (* b00 p00 r)) (* (- 1) (* q00 r00 a)) (* (- 1) (* a00 s00 p)) ?x69)))
 (let ((?x57 (* b00 p00)))
 (let ((?x1405 (* q a)))
 (let (($x959 (= (+ ?x1405 (* (- 1) (* a00 q00)) ?x57 (* (- 1) (* b p))) 0)))
 (let ((?x47 (* a00 s00)))
 (let ((?x1526 (* r b)))
 (let (($x952 (= (+ ?x1526 ?x47 (* (- 1) (* s a)) (* (- 1) (* b00 r00))) 0)))
 (let ((?x41 (* q00 r00)))
 (let ((?x786 (* (- 1) ?x41)))
 (let ((?x37 (* p00 s00)))
 (let ((?x1394 (* r q)))
 (and (= (+ ?x1394 (* (- 1) (* s p)) ?x37 ?x786) 0) $x952 $x959 (= ?x772 0) $x814 $x1519)))))))))))))))))))))))))))))) :qid k!39))
 ))
 (let ((?x939 (lambda ((p Int) (a Int) (q Int) (b Int) (r Int) (s Int) )(let ((?x313 (* (- 1) (* s q00 a00))))
 (let ((?x296 (* q s00 a00)))
 (let ((?x271 (* (- 1) (* q r00 b00))))
 (let ((?x261 (* s p00 b00)))
 (let ((?x232 (* r q00 a00)))
 (let ((?x254 (* (- 1) (* p s00 a00))))
 (let ((?x253 (* (- 1) (* r p00 b00))))
 (let ((?x198 (* p r00 b00)))
 (let ((?x76 (* b p00 s00)))
 (let ((?x285 (* (- 1) ?x76)))
 (let ((?x72 (* b q00 r00)))
 (let ((?x66 (* a q00 r00)))
 (let ((?x252 (* (- 1) ?x66)))
 (let ((?x63 (* a p00 s00)))
 (let ((?x1103 (+ ?x63 ?x252 ?x72 ?x285 ?x198 ?x253 ?x254 ?x232 ?x261 ?x271 ?x296 ?x313)))
 (let ((?x886 (* (- 1) (* p p q b r r s))))
 (let ((?x677 (* (- 1) (* p p a a q b b b s))))
 (let ((?x363 (* p a q q q b r r s)))
 (let ((?x1963 (+ ?x363 ?x677 ?x886 (* (- 1) (* p p p p a a r r r)) (* p p p p a b r r r) (* 3 (* p p p a a q r r r)) (* (- 3) (* p p p a q b r r r)) (* (- 3) (* p p a a q q r r r)) (* 3 (* p p a q q b r r r)) (* p a a q q q r r r) (* (- 1) (* p a q q q b r r r)) (* p p p p a a r r s) (* (- 1) (* p p p p a b r r s)) (* (- 3) (* p p p a a q r r s)) (* 3 (* p p p a q b r r s)) (* 3 (* p p a a q q r r s)) (* (- 3) (* p p a q q b r r s)) (* (- 1) (* p a a q q q r r s)) (* p p p a a a a a r) (* (- 3) (* p p p a a a a b r)) (* 3 (* p p p a a a b b r)) (* (- 1) (* p p p a a b b b r)) (* (- 1) (* p p a a a a a q r)) (* 3 (* p p a a a a q b r)) (* (- 3) (* p p a a a q b b r)) (* p p a a q b b b r) (* (- 1) (* p p p a a a a a s)) (* 3 (* p p p a a a a b s)) (* (- 3) (* p p p a a a b b s)) (* p p p a a b b b s) (* p p a a a a a q s) (* (- 3) (* p p a a a a q b s)) (* 3 (* p p a a a q b b s)) (* p p p a r r r) (* (- 1) (* p p p b r r r)) (* (- 1) (* p p a q r r r)) (* p p q b r r r) (* (- 1) (* p p p a r r s)) (* p p p b r r s) (* p p a q r r s) (* (- 1) (* p a a a a r r r r)) (* p a a a b r r r r) (* p a a a a r r r s) (* (- 1) (* p a a a b r r r s)))))
 (let ((?x319 (+ ?x72 ?x285 ?x261 ?x271 ?x296 ?x313)))
 (let ((?x332 (+ p (* (- 1) q))))
 (let ((?x328 (+ a (* (- 1) b))))
 (let ((?x336 (+ r (* (- 1) s))))
 (let ((?x1189 (* (- 1) (* ?x336 ?x336 ?x336 ?x328 ?x328 ?x328 ?x332 s b))))
 (let ((?x894 (* (- 1) (* q q q b s s s))))
 (let ((?x910 (* 2 (* p q q b s s s))))
 (let ((?x892 (* (- 1) (* p p q b s s s))))
 (let ((?x907 (* 2 (* q q q b r s s))))
 (let ((?x904 (* (- 4) (* p q q b r s s))))
 (let ((?x901 (* 2 (* p p q b r s s))))
 (let ((?x888 (* (- 1) (* q q q b r r s))))
 (let ((?x898 (* 2 (* p q q b r r s))))
 (let ((?x685 (* (- 1) (* q q q b b b b b s))))
 (let ((?x702 (* 2 (* a q q q b b b b s))))
 (let ((?x683 (* (- 1) (* a a q q q b b b s))))
 (let ((?x699 (* 2 (* p q q b b b b b s))))
 (let ((?x696 (* (- 4) (* p a q q b b b b s))))
 (let ((?x692 (* 2 (* p a a q q b b b s))))
 (let ((?x679 (* (- 1) (* p p q b b b b b s))))
 (let ((?x689 (* 2 (* p p a q b b b b s))))
 (let ((?x485 (* q q q q b b s s s)))
 (let ((?x479 (* (- 1) (* a q q q q b s s s))))
 (let ((?x469 (* (- 1) (* p q q q b b s s s))))
 (let ((?x457 (* p a q q q b s s s)))
 (let ((?x498 (* (- 2) (* q q q q b b r s s))))
 (let ((?x497 (* 2 (* a q q q q b r s s))))
 (let ((?x496 (* 2 (* p q q q b b r s s))))
 (let ((?x494 (* (- 2) (* p a q q q b r s s))))
 (let ((?x383 (* q q q q b b r r s)))
 (let ((?x377 (* (- 1) (* a q q q q b r r s))))
 (let ((?x367 (* (- 1) (* p q q q b b r r s))))
 (let ((?x1183 (+ ?x363 ?x367 ?x377 ?x383 ?x494 ?x496 ?x497 ?x498 ?x457 ?x469 ?x479 ?x485 ?x677 ?x689 ?x679 ?x692 ?x696 ?x699 ?x683 ?x702 ?x685 ?x886 ?x898 ?x888 ?x901 ?x904 ?x907 ?x892 ?x910 ?x894 ?x1189)))
 (let (($x324 (= ?x319 0)))
 (let (($x256 (= (+ ?x63 ?x252 ?x198 ?x253 ?x254 ?x232) 0)))
 (let ((?x144 (* p00 b00)))
 (let ((?x143 (* q00 a00)))
 (let ((?x187 (* (- 1) ?x143)))
 (let (($x190 (= (+ (* a q) ?x187 ?x144 (* (- 1) (* p b))) 0)))
 (let ((?x157 (* r00 b00)))
 (let ((?x139 (* s00 a00)))
 (let ((?x146 (* (- 1) ?x139)))
 (let ((?x49 (* a s)))
 (let (($x172 (= (+ ?x49 (* (- 1) (* b r)) ?x146 ?x157) 0)))
 (let ((?x41 (* q00 r00)))
 (let ((?x37 (* p00 s00)))
 (let ((?x148 (* (- 1) ?x37)))
 (let ((?x33 (* p s)))
 (let (($x167 (= (+ ?x33 ?x148 ?x41 (* (- 1) (* q r))) 0)))
 (let (($x204 (and $x167 $x172 $x190 $x256 $x324 (or (not (= (* ?x1183 ?x319) 0)) (not (= (* ?x1963 ?x1103) 0))))))
 (let ((?x1388 (+ (* q00 r00 (+ b (* (- 1) a))) (* b00 p00 (+ s (* (- 1) r))) (* (- 1) (* b00 r00 (+ q (* (- 1) p)))) (* (- 1) (* p00 s00 (+ b (* (- 1) a)))) (* a00 s00 (+ q (* (- 1) p))) (* (- 1) (* a00 q00 (+ s (* (- 1) r)))))))
 (let ((?x1057 (+ b (* (- 1) a))))
 (let ((?x837 (+ s (* (- 1) r))))
 (let ((?x1480 (* (- 1) (* ?x837 ?x1057 (+ q (* (- 1) p)) r r p p))))
 (let ((?x727 (+ q (* (- 1) p))))
 (let ((?x1508 (+ (* ?x837 ?x1057 ?x727 ?x727 ?x727 r r a p) (* (- 1) (* ?x837 ?x1057 ?x1057 ?x1057 ?x727 a a p p)) ?x1480 (* (- 1) (* ?x837 ?x1057 r r r a a a p)))))
 (let ((?x73 (* b00 p00 s)))
 (let ((?x810 (+ (* q00 r00 b) ?x73 (* (- 1) (* b00 r00 q)) (* (- 1) (* p00 s00 b)) (* a00 s00 q) (* (- 1) (* a00 q00 s)))))
 (let ((?x1677 (+ (* ?x336 ?x336 ?x328 ?x332 s b q q q) (* (- 1) (* ?x328 ?x328 ?x332 ?x332 s b b b q)) (* (- 1) (* ?x336 ?x336 ?x332 ?x332 s b q)) ?x1189)))
 (let (($x1519 (or (not (= (* ?x1677 ?x810) 0)) (not (= (* ?x1508 ?x1388) 0)))))
 (let (($x814 (= ?x810 0)))
 (let ((?x69 (* a00 q00 r)))
 (let ((?x736 (* p00 s00 a)))
 (let ((?x199 (* b00 r00 p)))
 (let ((?x772 (+ ?x199 ?x736 (* (- 1) (* b00 p00 r)) (* (- 1) (* q00 r00 a)) (* (- 1) (* a00 s00 p)) ?x69)))
 (let ((?x57 (* b00 p00)))
 (let ((?x1405 (* q a)))
 (let (($x959 (= (+ ?x1405 (* (- 1) (* a00 q00)) ?x57 (* (- 1) (* b p))) 0)))
 (let ((?x47 (* a00 s00)))
 (let ((?x1526 (* r b)))
 (let (($x952 (= (+ ?x1526 ?x47 (* (- 1) (* s a)) (* (- 1) (* b00 r00))) 0)))
 (let (($x762 (= (+ (* r q) (* (- 1) (* s p)) ?x37 (* (- 1) ?x41)) 0)))
 (let (($x811 (and $x762 $x952 $x959 (= ?x772 0) $x814 $x1519)))
 (rewrite (= $x811 $x204)))))))))))))))))))))))))))))))))))))))))))))))))))))))))))))))))))))))))))))))))))))))))))))))
 ))
 (let (($x823 (exists ((p Int) (a Int) (q Int) (b Int) (r Int) (s Int) )(! (let ((?x1388 (+ (* q00 r00 (+ b (* (- 1) a))) (* b00 p00 (+ s (* (- 1) r))) (* (- 1) (* b00 r00 (+ q (* (- 1) p)))) (* (- 1) (* p00 s00 (+ b (* (- 1) a)))) (* a00 s00 (+ q (* (- 1) p))) (* (- 1) (* a00 q00 (+ s (* (- 1) r)))))))
 (let ((?x1057 (+ b (* (- 1) a))))
 (let ((?x837 (+ s (* (- 1) r))))
 (let ((?x1480 (* (- 1) (* ?x837 ?x1057 (+ q (* (- 1) p)) r r p p))))
 (let ((?x727 (+ q (* (- 1) p))))
 (let ((?x1508 (+ (* ?x837 ?x1057 ?x727 ?x727 ?x727 r r a p) (* (- 1) (* ?x837 ?x1057 ?x1057 ?x1057 ?x727 a a p p)) ?x1480 (* (- 1) (* ?x837 ?x1057 r r r a a a p)))))
 (let ((?x73 (* b00 p00 s)))
 (let ((?x810 (+ (* q00 r00 b) ?x73 (* (- 1) (* b00 r00 q)) (* (- 1) (* p00 s00 b)) (* a00 s00 q) (* (- 1) (* a00 q00 s)))))
 (let ((?x332 (+ p (* (- 1) q))))
 (let ((?x328 (+ a (* (- 1) b))))
 (let ((?x336 (+ r (* (- 1) s))))
 (let ((?x1189 (* (- 1) (* ?x336 ?x336 ?x336 ?x328 ?x328 ?x328 ?x332 s b))))
 (let ((?x1677 (+ (* ?x336 ?x336 ?x328 ?x332 s b q q q) (* (- 1) (* ?x328 ?x328 ?x332 ?x332 s b b b q)) (* (- 1) (* ?x336 ?x336 ?x332 ?x332 s b q)) ?x1189)))
 (let (($x1519 (or (not (= (* ?x1677 ?x810) 0)) (not (= (* ?x1508 ?x1388) 0)))))
 (let (($x814 (= ?x810 0)))
 (let ((?x756 (* a00 s00 p)))
 (let ((?x752 (* q00 r00 a)))
 (let ((?x65 (* b00 p00 r)))
 (let ((?x777 (+ (* (- 1) (* b00 r00 p)) (* (- 1) (* p00 s00 a)) ?x65 ?x752 ?x756 (* (- 1) (* a00 q00 r)))))
 (let ((?x59 (* b p)))
 (let ((?x55 (* a00 q00)))
 (let (($x748 (= (+ (* (- 1) (* q a)) ?x55 (* (- 1) (* b00 p00)) ?x59) 0)))
 (let ((?x51 (* b00 r00)))
 (let ((?x942 (* s a)))
 (let (($x739 (= (+ (* (- 1) (* r b)) (* (- 1) (* a00 s00)) ?x942 ?x51) 0)))
 (let ((?x41 (* q00 r00)))
 (let ((?x37 (* p00 s00)))
 (let ((?x148 (* (- 1) ?x37)))
 (let ((?x385 (* s p)))
 (and (= (+ (* (- 1) (* r q)) ?x385 ?x148 ?x41) 0) $x739 $x748 (= ?x777 0) $x814 $x1519)))))))))))))))))))))))))))))) :qid k!39))
 ))
 (let ((?x809 (lambda ((p Int) (a Int) (q Int) (b Int) (r Int) (s Int) )(let ((?x1388 (+ (* q00 r00 (+ b (* (- 1) a))) (* b00 p00 (+ s (* (- 1) r))) (* (- 1) (* b00 r00 (+ q (* (- 1) p)))) (* (- 1) (* p00 s00 (+ b (* (- 1) a)))) (* a00 s00 (+ q (* (- 1) p))) (* (- 1) (* a00 q00 (+ s (* (- 1) r)))))))
 (let ((?x1057 (+ b (* (- 1) a))))
 (let ((?x837 (+ s (* (- 1) r))))
 (let ((?x1480 (* (- 1) (* ?x837 ?x1057 (+ q (* (- 1) p)) r r p p))))
 (let ((?x727 (+ q (* (- 1) p))))
 (let ((?x1508 (+ (* ?x837 ?x1057 ?x727 ?x727 ?x727 r r a p) (* (- 1) (* ?x837 ?x1057 ?x1057 ?x1057 ?x727 a a p p)) ?x1480 (* (- 1) (* ?x837 ?x1057 r r r a a a p)))))
 (let ((?x73 (* b00 p00 s)))
 (let ((?x810 (+ (* q00 r00 b) ?x73 (* (- 1) (* b00 r00 q)) (* (- 1) (* p00 s00 b)) (* a00 s00 q) (* (- 1) (* a00 q00 s)))))
 (let ((?x332 (+ p (* (- 1) q))))
 (let ((?x328 (+ a (* (- 1) b))))
 (let ((?x336 (+ r (* (- 1) s))))
 (let ((?x1189 (* (- 1) (* ?x336 ?x336 ?x336 ?x328 ?x328 ?x328 ?x332 s b))))
 (let ((?x1677 (+ (* ?x336 ?x336 ?x328 ?x332 s b q q q) (* (- 1) (* ?x328 ?x328 ?x332 ?x332 s b b b q)) (* (- 1) (* ?x336 ?x336 ?x332 ?x332 s b q)) ?x1189)))
 (let (($x1519 (or (not (= (* ?x1677 ?x810) 0)) (not (= (* ?x1508 ?x1388) 0)))))
 (let (($x814 (= ?x810 0)))
 (let ((?x69 (* a00 q00 r)))
 (let ((?x736 (* p00 s00 a)))
 (let ((?x199 (* b00 r00 p)))
 (let ((?x772 (+ ?x199 ?x736 (* (- 1) (* b00 p00 r)) (* (- 1) (* q00 r00 a)) (* (- 1) (* a00 s00 p)) ?x69)))
 (let ((?x57 (* b00 p00)))
 (let ((?x1405 (* q a)))
 (let (($x959 (= (+ ?x1405 (* (- 1) (* a00 q00)) ?x57 (* (- 1) (* b p))) 0)))
 (let ((?x47 (* a00 s00)))
 (let ((?x1526 (* r b)))
 (let (($x952 (= (+ ?x1526 ?x47 (* (- 1) (* s a)) (* (- 1) (* b00 r00))) 0)))
 (let ((?x41 (* q00 r00)))
 (let ((?x786 (* (- 1) ?x41)))
 (let ((?x37 (* p00 s00)))
 (let ((?x1394 (* r q)))
 (let (($x811 (and (= (+ ?x1394 (* (- 1) (* s p)) ?x37 ?x786) 0) $x952 $x959 (= ?x772 0) $x814 $x1519)))
 (let ((?x756 (* a00 s00 p)))
 (let ((?x752 (* q00 r00 a)))
 (let ((?x65 (* b00 p00 r)))
 (let (($x781 (= (+ (* (- 1) ?x199) (* (- 1) ?x736) ?x65 ?x752 ?x756 (* (- 1) ?x69)) 0)))
 (let (($x748 (= (+ (* (- 1) ?x1405) (* a00 q00) (* (- 1) ?x57) (* b p)) 0)))
 (let (($x739 (= (+ (* (- 1) ?x1526) (* (- 1) ?x47) (* s a) (* b00 r00)) 0)))
 (let (($x852 (and (= (+ (* (- 1) ?x1394) (* s p) (* (- 1) ?x37) ?x41) 0) $x739 $x748 $x781 $x814 $x1519)))
 (rewrite (= $x852 $x811))))))))))))))))))))))))))))))))))))))))
 ))
 (let (($x123 (exists ((p Int) (a Int) (q Int) (b Int) (r Int) (s Int) )(! (let ((?x99 (- s r)))
 (let ((?x102 (- q p)))
 (let ((?x97 (- b a)))
 (let ((?x115 (- (* a ?x97 p ?x102 ?x102 ?x102 r r ?x99) (* a a ?x97 ?x97 ?x97 p p ?x102 ?x99))))
 (let ((?x117 (- (- ?x115 (* ?x97 p p ?x102 r r ?x99)) (* a a a ?x97 p r r r ?x99))))
 (let ((?x105 (- (+ (* ?x97 q00 r00) (* b00 p00 ?x99)) (* b00 ?x102 r00))))
 (let ((?x110 (- (+ (- ?x105 (* ?x97 p00 s00)) (* a00 ?x102 s00)) (* a00 q00 ?x99))))
 (let ((?x86 (- r s)))
 (let ((?x85 (- p q)))
 (let ((?x84 (- a b)))
 (let ((?x91 (- (* ?x84 b ?x85 q q q ?x86 ?x86 s) (* ?x84 ?x84 b b b ?x85 ?x85 q s))))
 (let ((?x93 (- (- ?x91 (* b ?x85 ?x85 q ?x86 ?x86 s)) (* ?x84 ?x84 ?x84 b ?x85 ?x86 ?x86 ?x86 s))))
 (let ((?x81 (* a00 q00 s)))
 (let ((?x76 (* b p00 s00)))
 (let ((?x77 (- (+ (* b q00 r00) (* b00 p00 s)) (* b00 q r00))))
 (let ((?x82 (- (+ (- ?x77 ?x76) (* a00 q s00)) ?x81)))
 (let ((?x69 (* a00 q00 r)))
 (let ((?x66 (* a q00 r00)))
 (let ((?x65 (* b00 p00 r)))
 (let ((?x68 (+ (- (* (- 1) b00 p r00) (* a p00 s00)) ?x65 ?x66 (* a00 p s00))))
 (let ((?x59 (* b p)))
 (let ((?x60 (+ (- (+ (* (- 1) a q) (* a00 q00)) (* b00 p00)) ?x59)))
 (let ((?x51 (* b00 r00)))
 (let ((?x49 (* a s)))
 (let (($x53 (= (+ (- (* (- 1) b r) (* a00 s00)) ?x49 ?x51) 0)))
 (let ((?x41 (* q00 r00)))
 (let ((?x42 (+ (- (+ (* (- 1) q r) (* p s)) (* p00 s00)) ?x41)))
 (and (= ?x42 0) $x53 (= ?x60 0) (= (- ?x68 ?x69) 0) (= ?x82 0) (or (not (= (* ?x82 ?x93) 0)) (not (= (* ?x110 ?x117) 0))))))))))))))))))))))))))))))) :qid k!39))
 ))
 (let ((?x824 (lambda ((p Int) (a Int) (q Int) (b Int) (r Int) (s Int) )(let ((?x1388 (+ (* q00 r00 (+ b (* (- 1) a))) (* b00 p00 (+ s (* (- 1) r))) (* (- 1) (* b00 r00 (+ q (* (- 1) p)))) (* (- 1) (* p00 s00 (+ b (* (- 1) a)))) (* a00 s00 (+ q (* (- 1) p))) (* (- 1) (* a00 q00 (+ s (* (- 1) r)))))))
 (let ((?x1057 (+ b (* (- 1) a))))
 (let ((?x837 (+ s (* (- 1) r))))
 (let ((?x1480 (* (- 1) (* ?x837 ?x1057 (+ q (* (- 1) p)) r r p p))))
 (let ((?x727 (+ q (* (- 1) p))))
 (let ((?x1508 (+ (* ?x837 ?x1057 ?x727 ?x727 ?x727 r r a p) (* (- 1) (* ?x837 ?x1057 ?x1057 ?x1057 ?x727 a a p p)) ?x1480 (* (- 1) (* ?x837 ?x1057 r r r a a a p)))))
 (let ((?x73 (* b00 p00 s)))
 (let ((?x810 (+ (* q00 r00 b) ?x73 (* (- 1) (* b00 r00 q)) (* (- 1) (* p00 s00 b)) (* a00 s00 q) (* (- 1) (* a00 q00 s)))))
 (let ((?x332 (+ p (* (- 1) q))))
 (let ((?x328 (+ a (* (- 1) b))))
 (let ((?x336 (+ r (* (- 1) s))))
 (let ((?x1189 (* (- 1) (* ?x336 ?x336 ?x336 ?x328 ?x328 ?x328 ?x332 s b))))
 (let ((?x1677 (+ (* ?x336 ?x336 ?x328 ?x332 s b q q q) (* (- 1) (* ?x328 ?x328 ?x332 ?x332 s b b b q)) (* (- 1) (* ?x336 ?x336 ?x332 ?x332 s b q)) ?x1189)))
 (let (($x1519 (or (not (= (* ?x1677 ?x810) 0)) (not (= (* ?x1508 ?x1388) 0)))))
 (let (($x814 (= ?x810 0)))
 (let ((?x756 (* a00 s00 p)))
 (let ((?x752 (* q00 r00 a)))
 (let ((?x65 (* b00 p00 r)))
 (let ((?x777 (+ (* (- 1) (* b00 r00 p)) (* (- 1) (* p00 s00 a)) ?x65 ?x752 ?x756 (* (- 1) (* a00 q00 r)))))
 (let ((?x59 (* b p)))
 (let ((?x55 (* a00 q00)))
 (let (($x748 (= (+ (* (- 1) (* q a)) ?x55 (* (- 1) (* b00 p00)) ?x59) 0)))
 (let ((?x51 (* b00 r00)))
 (let ((?x942 (* s a)))
 (let (($x739 (= (+ (* (- 1) (* r b)) (* (- 1) (* a00 s00)) ?x942 ?x51) 0)))
 (let ((?x41 (* q00 r00)))
 (let ((?x37 (* p00 s00)))
 (let ((?x148 (* (- 1) ?x37)))
 (let ((?x385 (* s p)))
 (let (($x852 (and (= (+ (* (- 1) (* r q)) ?x385 ?x148 ?x41) 0) $x739 $x748 (= ?x777 0) $x814 $x1519)))
 (let ((?x99 (- s r)))
 (let ((?x102 (- q p)))
 (let ((?x97 (- b a)))
 (let ((?x115 (- (* a ?x97 p ?x102 ?x102 ?x102 r r ?x99) (* a a ?x97 ?x97 ?x97 p p ?x102 ?x99))))
 (let ((?x117 (- (- ?x115 (* ?x97 p p ?x102 r r ?x99)) (* a a a ?x97 p r r r ?x99))))
 (let ((?x105 (- (+ (* ?x97 q00 r00) (* b00 p00 ?x99)) (* b00 ?x102 r00))))
 (let ((?x110 (- (+ (- ?x105 (* ?x97 p00 s00)) (* a00 ?x102 s00)) (* a00 q00 ?x99))))
 (let ((?x86 (- r s)))
 (let ((?x85 (- p q)))
 (let ((?x84 (- a b)))
 (let ((?x91 (- (* ?x84 b ?x85 q q q ?x86 ?x86 s) (* ?x84 ?x84 b b b ?x85 ?x85 q s))))
 (let ((?x93 (- (- ?x91 (* b ?x85 ?x85 q ?x86 ?x86 s)) (* ?x84 ?x84 ?x84 b ?x85 ?x86 ?x86 ?x86 s))))
 (let ((?x81 (* a00 q00 s)))
 (let ((?x76 (* b p00 s00)))
 (let ((?x80 (+ (- (- (+ (* b q00 r00) ?x73) (* b00 q r00)) ?x76) (* a00 q s00))))
 (let ((?x82 (- ?x80 ?x81)))
 (let ((?x69 (* a00 q00 r)))
 (let ((?x66 (* a q00 r00)))
 (let ((?x68 (+ (- (* (- 1) b00 p r00) (* a p00 s00)) ?x65 ?x66 (* a00 p s00))))
 (let (($x61 (= (+ (- (+ (* (- 1) a q) ?x55) (* b00 p00)) ?x59) 0)))
 (let (($x53 (= (+ (- (* (- 1) b r) (* a00 s00)) (* a s) ?x51) 0)))
 (let (($x44 (= (+ (- (+ (* (- 1) q r) (* p s)) ?x37) ?x41) 0)))
 (let (($x122 (and $x44 $x53 $x61 (= (- ?x68 ?x69) 0) (= ?x82 0) (or (not (= (* ?x82 ?x93) 0)) (not (= (* ?x110 ?x117) 0))))))
 (rewrite (= $x122 $x852))))))))))))))))))))))))))))))))))))))))))))))))))))))))
 ))
 (let ((@x124 (asserted $x123)))
 (let ((@x769 (mp (mp @x124 (quant-intro (proof-bind ?x824) (= $x123 $x823)) $x823) (rewrite (= $x823 $x823)) $x823)))
 (let ((@x308 (mp (mp @x769 (quant-intro (proof-bind ?x809) (= $x823 $x808)) $x808) (quant-intro (proof-bind ?x939) (= $x808 $x825)) $x825)))
 (let ((@x1560 (mp (mp~ @x308 (sk (~ $x825 $x372)) $x372) (rewrite (= $x372 $x1811)) $x1811)))
 (let ((@x1578 (and-elim @x1560 $x1545)))
 (let ((@x1476 (unit-resolution ((_ th-lemma arith triangle-eq) (or (not $x1545) $x380)) @x1578 $x380)))
 (let (($x348 (<= ?x1184 0)))
 (let ((@x1584 (and-elim @x1560 $x1671)))
 (let ((@x475 (unit-resolution ((_ th-lemma arith triangle-eq) (or (not $x1671) $x348)) @x1584 $x348)))
 (let (($x375 (>= ?x1539 0)))
 (let ((@x395 (unit-resolution ((_ th-lemma arith triangle-eq) (or (not $x1545) $x375)) @x1578 $x375)))
 (let (($x381 (>= ?x1184 0)))
 (let ((@x1698 (unit-resolution ((_ th-lemma arith triangle-eq) (or (not $x1671) $x381)) @x1584 $x381)))
 (let (($x191 (not (<= ?x1576 0))))
 (let ((@x1913 (unit-resolution (hypothesis $x1651) ((_ th-lemma arith eq-propagate 0 0 0 0) @x395 @x1476 @x395 @x1476 $x1387) false)))
 (let (($x345 (>= ?x1576 0)))
 (let ((@x439 (lemma ((_ th-lemma arith farkas 1 1 1 1 1) (hypothesis (not $x345)) @x1698 @x395 @x475 @x1476 false) $x345)))
 (let ((@x354 (unit-resolution ((_ th-lemma arith triangle-eq) (or $x1585 $x191 (not $x345))) @x439 (unit-resolution (and-elim @x1560 $x1581) (lemma @x1913 $x1387) $x1575) $x191)))
 ((_ th-lemma arith farkas 1 1 1 1 1) @x354 @x1698 @x395 @x475 @x1476 false)))))))))))))))))))))))))))))))))))))))))))))))))))))))))))))))))))))))))))))))))))))))))))))))))))))))

(:added-eqs                 9
 :arith-assert-diseq        2
 :arith-assert-lower        14
 :arith-assert-upper        13
 :arith-conflicts           2
 :arith-eq-adapter          9
 :arith-fixed-eqs           3
 :arith-grobner             2
 :arith-max-min             458
 :arith-nonlinear-horner    22
 :arith-num-rows            11
 :arith-pivots              5
 :arith-pseudo-nonlinear    4
 :arith-row-summations      2
 :arith-tableau-max-columns 127
 :arith-tableau-max-rows    11
 :conflicts                 3
 :decisions                 2
 :del-clause                19
 :final-checks              2
 :max-memory                333.95
 :memory                    3.29
 :mk-bool-var               33
 :mk-clause                 32
 :num-allocs                9573175498446.00
 :num-checks                1
 :propagations              15
 :rlimit-count              88570421
 :time                      50.55
 :total-time                50.56)
